Instance name : DPDPTWHF_R_DPDPTWUR-R_dbscan_poa-n100-1
Authors : 
Date : 
Reference 
Solution
Route 1 : 1 49 99 51 
Route 2 : 38 88 25 26 75 76 
Route 3 : 11 48 61 98 2 52 42 92 
Route 4 : 28 78 10 27 60 77 
Route 5 : 32 23 82 73 19 18 68 24 74 69 
Route 6 : 6 40 56 44 90 94 
Route 7 : 22 14 64 33 72 83 
Route 8 : 7 12 57 62 37 16 66 87 
Route 9 : 8 41 91 58 29 5 79 55 
Route 10 : 4 30 54 15 80 65 
Route 11 : 50 21 34 71 100 36 86 84 
Route 12 : 20 70 17 13 63 3 67 53 
Route 13 : 47 97 39 35 89 85 
Route 14 : 46 96 45 43 95 93 
